c Sudoku solution
p cnf 729 0
141 0
255 0
279 0
286 0
343 0
371 0
384 0
397 0
436 0
445 0
492 0
515 0
521 0
539 0
657 0
681 0
723 0
752 0
766 0
819 0
848 0
851 0
461 0
864 0
965 0
953 0
885 0
735 0
325 0
129 0
928 0
826 0
893 0
298 0
195 0
675 0
877 0
832 0
338 0
587 0
634 0
427 0
622 0
224 0
154 0
356 0
168 0
369 0
116 0
312 0
137 0
233 0
211 0
791 0
931 0
544 0
562 0
663 0
474 0
596 0
699 0
459 0
558 0
646 0
573 0
488 0
413 0
618 0
242 0
267 0
172 0
183 0
982 0
778 0
789 0
714 0
917 0
747 0
949 0
976 0
994 0
